data/solutions/planning/wellformed/moderate/sequential/wellformed_moderate_instance91_cplex.sol
Elapsed time: 0.1
Nodes explored: -
Nodes left: -
Relative gap: -
Upper bound: 30414.0
Lower bound: -
C[0]=483.0
C[1]=483.0
C[2]=482.0
C[3]=482.0
C[4]=482.0
C[5]=482.0
y[0]=2
y[1]=2
y[2]=0
y[3]=3
y[4]=4
y[5]=4
y[6]=0
y[7]=3
y[8]=2
y[9]=0
y[10]=0
y[11]=5
y[12]=4
y[13]=0
y[14]=2
y[15]=4
y[16]=5
y[17]=1
y[18]=5
y[19]=0
y[20]=1
y[21]=5
y[22]=4
y[23]=1
y[24]=5
y[25]=0
y[26]=2
y[27]=3
y[28]=3
y[29]=1
y[30]=3
y[31]=2
y[32]=1
y[33]=5
y[34]=4
y[35]=4
y[36]=2
y[37]=0
y[38]=3
y[39]=0
y[40]=5
y[41]=1
y[42]=1
y[43]=1
y[44]=0
y[45]=1
y[46]=1
y[47]=1
y[48]=0
y[49]=3
